c This is QMaxSAT 2017 based on 14.07
c This is Glucose 3.0
c This is MiniSat 2.2.0
c WARNING: for repeatability, setting FPU to use double precision
c card = mrwto, comp = 0, pmodel = 0, narr = 5, mct = 24, verb = 0
cr firstCPXsol 0 0 0
c top = 81479
c |  Number of variables:    14518                                            |
c |  Number of clauses:      3025453                                          |
c |  Weight of hard clauses: 81479                                            |
c |  Number of soft clauses: 2760                                             |
c |  Number of unit soft clauses: 2760                                        |
c |  Maximum Cardinality (by unit): 407390       (407390      )               |
c last restart ## conflicts  :  7 1923 
o 1372 | cpuTime 0.286211 s
c Sum of weights = 81478
c A number of soft clauses remained = 552
c MRWTO encoding for Pseudo-Boolean Constraints
c sizeMax=1372
c No.0 Divisor=12	generated by pow1
c No.1 Divisor=12	generated by pow1
c No.2 Divisor=12	generated by pow1
c p0= 12	p1= 12	p2= 12	
c number of digits = 4
c linkingVar[0].size = 12, linkingVar[1].size = 12, linkingVar[2].size = 10, linkingVar[3].size = 1, 
c Pseudo-Boolean Constraints: 12051 variables and 115467 clauses
c Sum of weights = 81478
c A number of soft clauses remained = 552
c MRWTO encoding for Pseudo-Boolean Constraints
c sizeMax=1372
c No.0 Divisor=12	generated by pow1
c No.1 Divisor=12	generated by pow1
c No.2 Divisor=12	generated by pow1
c p0= 12	p1= 12	p2= 12	
c number of digits = 4
c linkingVar[0].size = 12, linkingVar[1].size = 12, linkingVar[2].size = 10, linkingVar[3].size = 1, 
c Pseudo-Boolean Constraints: 12051 variables and 115467 clauses
c Sum of weights = 81478
c A number of soft clauses remained = 552
c MRWTO encoding for Pseudo-Boolean Constraints
c sizeMax=1372
c No.0 Divisor=12	generated by pow1
c No.1 Divisor=12	generated by pow1
c No.2 Divisor=12	generated by pow1
c p0= 12	p1= 12	p2= 12	
c number of digits = 4
c linkingVar[0].size = 12, linkingVar[1].size = 12, linkingVar[2].size = 10, linkingVar[3].size = 1, 
c Pseudo-Boolean Constraints: 12051 variables and 115467 clauses
c Sum of weights = 81478
c A number of soft clauses remained = 552
c MRWTO encoding for Pseudo-Boolean Constraints
c sizeMax=1372
c No.0 Divisor=12	generated by pow1
c No.1 Divisor=12	generated by pow1
c No.2 Divisor=12	generated by pow1
c p0= 12	p1= 12	p2= 12	
c number of digits = 4
c linkingVar[0].size = 12, linkingVar[1].size = 12, linkingVar[2].size = 10, linkingVar[3].size = 1, 
c Pseudo-Boolean Constraints: 12051 variables and 115467 clauses
c Sum of weights = 81478
c A number of soft clauses remained = 552
c MRWTO encoding for Pseudo-Boolean Constraints
c sizeMax=1372
c No.0 Divisor=12	generated by pow1
c No.1 Divisor=12	generated by pow1
c No.2 Divisor=12	generated by pow1
c p0= 12	p1= 12	p2= 12	
c number of digits = 4
c linkingVar[0].size = 12, linkingVar[1].size = 12, linkingVar[2].size = 10, linkingVar[3].size = 1, 
c Pseudo-Boolean Constraints: 12051 variables and 115467 clauses
c last restart ## conflicts  :  45 3628 
o 1283 | cpuTime 0.65586 s
c last restart ## conflicts  :  111 4291 
o 1219 | cpuTime 4.21989 s
c last restart ## conflicts  :  75 7974 
o 1080 | cpuTime 4.34081 s
c last restart ## conflicts  :  615 2724 
o 1025 | cpuTime 4.94248 s
c last restart ## conflicts  :  226 2778 
o 1023 | cpuTime 7.23194 s
c last restart ## conflicts  :  236 2047 
o 1014 | cpuTime 8.92122 s
c last restart ## conflicts  :  76 2646 
o 935 | cpuTime 11.59 s
c last restart ## conflicts  :  313 2399 
o 929 | cpuTime 16.4904 s
c last restart ## conflicts  :  201 2172 
o 920 | cpuTime 22.9066 s
c last restart ## conflicts  :  471 2431 
o 909 | cpuTime 25.1356 s
c last restart ## conflicts  :  83 12891 
o 879 | cpuTime 25.1627 s
c last restart ## conflicts  :  431 1492 
o 855 | cpuTime 40.2816 s
c last restart ## conflicts  :  439 2562 
o 847 | cpuTime 50.3904 s
c last restart ## conflicts  :  2763 6460 
o 839 | cpuTime 51.2623 s
c last restart ## conflicts  :  198 1971 
o 828 | cpuTime 55.2207 s
c last restart ## conflicts  :  251 1905 
o 817 | cpuTime 59.4201 s
c last restart ## conflicts  :  1047 2242 
o 814 | cpuTime 68.7356 s
c last restart ## conflicts  :  349 2316 
o 801 | cpuTime 69.4377 s
c last restart ## conflicts  :  50 14573 
o 745 | cpuTime 69.4776 s
c last restart ## conflicts  :  438 1449 
o 743 | cpuTime 108.136 s
c last restart ## conflicts  :  391 1970 
o 685 | cpuTime 123.906 s
c last restart ## conflicts  :  647 2120 
o 680 | cpuTime 149.952 s
c last restart ## conflicts  :  652 1471 
o 675 | cpuTime 289.111 s
c last restart ## conflicts  :  249 1952 
o 655 | cpuTime 538.049 s
c last restart ## conflicts  :  2 2370 
o 648 | cpuTime 760.945 s
c last restart ## conflicts  :  222 1646 
o 642 | cpuTime 2020.72 s
s UNKNOWN
c Search is stopped by a limit (maybe time-limit)
cr positiVarArr: [ | 16@1(1->16) | 66@1(3->18) | 102@1(5->6) | 121@1(6->1) | 155@1(7->11) | 243@1(11->3) | 367@1(16->7) | 405@1(17->21) | 430@1(18->22) | 485@1(21->5) | 521@1(22->17) | 586@2(1->10) | 791@2(9->23) | 805@2(10->13) | 841@2(12->1) | 873@2(13->9) | 1116@2(23->12) | 1160@3(1->8) | 1225@3(4->1) | 1324@3(8->4) | 1742@4(1->14) | 1771@4(2->19) | 2042@4(14->2) | 2161@4(19->1) | 2328@5(1->24) | 2641@5(15->1) | 2775@5(20->15) | 2876@5(24->20) | ]
cr the 1-th chain: [ 1->16->7->11->3->18->22->17->21->5->6->1 ] (#non-depot=10) {#cumul.=11}
cr the 2-th chain: [ 1->10->13->9->23->12->1 ] (#non-depot=5) {#cumul.=16}
cr the 3-th chain: [ 1->8->4->1 ] (#non-depot=2) {#cumul.=18}
cr the 4-th chain: [ 1->14->2->19->1 ] (#non-depot=3) {#cumul.=21}
cr the 5-th chain: [ 1->24->20->15->1 ] (#non-depot=3) {#cumul.=24}
c Latest Answer = 0 by 27 loops
c restarts              : 42265
c conflicts             : 13734918       (3826 /sec)
c decisions             : 65717864       (0.00 % random) (18306 /sec)
c propagations          : 20912986095    (5825387 /sec)
c conflict literals     : 3977294781     (46.45 % deleted)
c Memory used           : 957.00 MB
c CPU time              : 3589.97 s
